%%%%%%%%%%%%%%%%%%%%%%%%%%%%%%%%%%%%%%%%%%%%%%%%%%%%%%%%%%%%%%%%%%%%%%%%%
%FILE DATA:	Soccer Computational Problem for MiniZinc Models
%AUTHORS:	Robinson Duque, Alejandro Arbelaez, Juan Francisco Díaz
%CONTACT:  	robinson.duque@correounivalle.edu.co 
%LAST UPDATE:	May, 2018 
%ROUND ROBIN:2
%TEAMS:20
%PRESENT FIXTURE:30
%FIXTURES TO PLAY:8
%GAMES TO PLAY:80
%%%%%%%%%%%%%%%%%%%%%%%%%%%%%%%%%%%%%%%%%%%%%%%%%%%%%%%%%%%%%%%%%%%%%%%%%
%Number of teams:
n=20;

%For the purpose of our models, we offer two representations of the games to play, namely fixtures and games to play:

%Fixtures to play:
%fixtures=[|0,0,1,0,1,0,1,1,1,0,0,0,0,1,1,0,0,0,0,1
%|0,0,0,1,1,1,0,0,0,0,0,0,1,1,0,0,1,1,0,1
%|1,0,0,1,1,1,0,0,1,1,0,0,0,0,0,1,0,0,0,1
%|0,1,1,0,0,0,0,1,1,0,0,1,0,0,1,0,1,0,0,1
%|1,1,1,0,0,0,1,1,0,0,1,0,1,0,0,1,0,0,0,0
%|0,1,1,0,0,0,1,1,1,0,0,0,0,1,1,0,0,1,0,0
%|1,0,0,0,1,1,0,0,0,0,1,0,1,0,0,1,0,0,1,1
%|1,0,0,1,1,1,0,0,0,1,1,0,1,1,0,0,0,0,0,0
%|1,0,1,1,0,1,0,0,0,1,0,0,0,0,0,1,0,0,1,1
%|0,0,1,0,0,0,0,1,1,0,1,0,1,0,1,1,0,1,0,0
%|0,0,0,0,1,0,1,1,0,1,0,1,1,0,1,0,0,0,1,0
%|0,0,0,1,0,0,0,0,0,0,1,0,0,0,1,1,1,1,1,1
%|0,1,0,0,1,0,1,1,0,1,1,0,0,0,0,0,1,0,1,0
%|1,1,0,0,0,1,0,1,0,0,0,0,0,0,1,0,1,1,0,1
%|1,0,0,1,0,1,0,0,0,1,1,1,0,1,0,0,1,0,0,0
%|0,0,1,0,1,0,1,0,1,1,0,1,0,0,0,0,0,1,1,0
%|0,1,0,1,0,0,0,0,0,0,0,1,1,1,1,0,0,1,1,0
%|0,1,0,0,0,1,0,0,0,1,0,1,0,1,0,1,1,0,1,0
%|0,0,0,0,0,0,1,0,1,0,1,1,1,0,0,1,1,1,0,0
%|1,1,1,1,0,0,1,0,1,0,0,1,0,1,0,0,0,0,0,0|];

%Played Fixtures:
%PlayedFixtures=[|0,2,1,2,1,2,1,1,1,2,2,2,2,1,1,2,2,2,2,1
%|2,0,2,1,1,1,2,2,2,2,2,2,1,1,2,2,1,1,2,1
%|1,2,0,1,1,1,2,2,1,1,2,2,2,2,2,1,2,2,2,1
%|2,1,1,0,2,2,2,1,1,2,2,1,2,2,1,2,1,2,2,1
%|1,1,1,2,0,2,1,1,2,2,1,2,1,2,2,1,2,2,2,2
%|2,1,1,2,2,0,1,1,1,2,2,2,2,1,1,2,2,1,2,2
%|1,2,2,2,1,1,0,2,2,2,1,2,1,2,2,1,2,2,1,1
%|1,2,2,1,1,1,2,0,2,1,1,2,1,1,2,2,2,2,2,2
%|1,2,1,1,2,1,2,2,0,1,2,2,2,2,2,1,2,2,1,1
%|2,2,1,2,2,2,2,1,1,0,1,2,1,2,1,1,2,1,2,2
%|2,2,2,2,1,2,1,1,2,1,0,1,1,2,1,2,2,2,1,2
%|2,2,2,1,2,2,2,2,2,2,1,0,2,2,1,1,1,1,1,1
%|2,1,2,2,1,2,1,1,2,1,1,2,0,2,2,2,1,2,1,2
%|1,1,2,2,2,1,2,1,2,2,2,2,2,0,1,2,1,1,2,1
%|1,2,2,1,2,1,2,2,2,1,1,1,2,1,0,2,1,2,2,2
%|2,2,1,2,1,2,1,2,1,1,2,1,2,2,2,0,2,1,1,2
%|2,1,2,1,2,2,2,2,2,2,2,1,1,1,1,2,0,1,1,2
%|2,1,2,2,2,1,2,2,2,1,2,1,2,1,2,1,1,0,1,2
%|2,2,2,2,2,2,1,2,1,2,1,1,1,2,2,1,1,1,0,2
%|1,1,1,1,2,2,1,2,1,2,2,1,2,1,2,2,2,2,2,0|];

%Games to play:
games=[|3,1|4,2|4,3|5,1|5,2|5,3|6,2|6,3|7,1|7,5|7,6|8,1|8,4|8,5|8,6|9,1|9,3|9,4|9,6|10,3|10,8|10,9|11,5|11,7|11,8|11,10|12,4|12,11|13,2|13,5|13,7|13,8|13,10|13,11|14,1|14,2|14,6|14,8|15,1|15,4|15,6|15,10|15,11|15,12|15,14|16,3|16,5|16,7|16,9|16,10|16,12|17,2|17,4|17,12|17,13|17,14|17,15|18,2|18,6|18,10|18,12|18,14|18,16|18,17|19,7|19,9|19,11|19,12|19,13|19,16|19,17|19,18|20,1|20,2|20,3|20,4|20,7|20,9|20,12|20,14|];

%Played Games:
%PlayedGames=[|2,1|2,1|3,1|3,2|3,2|4,1|4,1|4,2|4,3|5,1|5,2|5,3|5,4|5,4|6,1|6,1|6,2|6,3|6,4|6,4|6,5|6,5|7,1|7,2|7,2|7,3|7,3|7,4|7,4|7,5|7,6|8,1|8,2|8,2|8,3|8,3|8,4|8,5|8,6|8,7|8,7|9,1|9,2|9,2|9,3|9,4|9,5|9,5|9,6|9,7|9,7|9,8|9,8|10,1|10,1|10,2|10,2|10,3|10,4|10,4|10,5|10,5|10,6|10,6|10,7|10,7|10,8|10,9|11,1|11,1|11,2|11,2|11,3|11,3|11,4|11,4|11,5|11,6|11,6|11,7|11,8|11,9|11,9|11,10|12,1|12,1|12,2|12,2|12,3|12,3|12,4|12,5|12,5|12,6|12,6|12,7|12,7|12,8|12,8|12,9|12,9|12,10|12,10|12,11|13,1|13,1|13,2|13,3|13,3|13,4|13,4|13,5|13,6|13,6|13,7|13,8|13,9|13,9|13,10|13,11|13,12|13,12|14,1|14,2|14,3|14,3|14,4|14,4|14,5|14,5|14,6|14,7|14,7|14,8|14,9|14,9|14,10|14,10|14,11|14,11|14,12|14,12|14,13|14,13|15,1|15,2|15,2|15,3|15,3|15,4|15,5|15,5|15,6|15,7|15,7|15,8|15,8|15,9|15,9|15,10|15,11|15,12|15,13|15,13|15,14|16,1|16,1|16,2|16,2|16,3|16,4|16,4|16,5|16,6|16,6|16,7|16,8|16,8|16,9|16,10|16,11|16,11|16,12|16,13|16,13|16,14|16,14|16,15|16,15|17,1|17,1|17,2|17,3|17,3|17,4|17,5|17,5|17,6|17,6|17,7|17,7|17,8|17,8|17,9|17,9|17,10|17,10|17,11|17,11|17,12|17,13|17,14|17,15|17,16|17,16|18,1|18,1|18,2|18,3|18,3|18,4|18,4|18,5|18,5|18,6|18,7|18,7|18,8|18,8|18,9|18,9|18,10|18,11|18,11|18,12|18,13|18,13|18,14|18,15|18,15|18,16|18,17|19,1|19,1|19,2|19,2|19,3|19,3|19,4|19,4|19,5|19,5|19,6|19,6|19,7|19,8|19,8|19,9|19,10|19,10|19,11|19,12|19,13|19,14|19,14|19,15|19,15|19,16|19,17|19,18|20,1|20,2|20,3|20,4|20,5|20,5|20,6|20,6|20,7|20,8|20,8|20,9|20,10|20,10|20,11|20,11|20,12|20,13|20,13|20,14|20,15|20,15|20,16|20,16|20,17|20,17|20,18|20,18|20,19|20,19|];

%Played Games - Win Results:
%% 0  0  1  0  0  0  0  0  0  0  1  0  2  0  0  0  0  1  0  0
%% 0  0  0  0  0  0  0  0  0  0  0  0  0  0  0  0  0  0  0  0
%% 0  0  0  0  0  1  0  0  0  0  1  0  0  0  0  1  0  0  0  0
%% 0  0  0  0  0  0  0  0  0  0  0  0  0  0  0  0  0  0  0  0
%% 0  1  0  1  0  1  0  0  0  0  0  2  0  0  0  0  2  2  0  0
%% 0  0  0  0  0  0  0  0  0  0  0  0  0  0  0  0  0  0  0  0
%% 0  0  0  0  0  0  0  0  0  0  1  1  0  0  0  0  0  2  0  0
%% 1  0  0  0  1  1  2  0  0  0  1  1  0  0  2  2  0  2  2  0
%% 0  0  1  0  0  1  2  0  0  0  0  2  2  0  0  0  0  0  0  0
%% 2  0  1  2  2  0  0  0  0  0  0  1  0  2  0  0  2  1  0  2
%% 0  0  0  0  0  0  0  0  0  0  0  0  0  0  0  0  0  0  0  0
%% 0  0  0  0  0  0  0  0  0  0  0  0  0  0  0  0  0  0  0  0
%% 0  1  0  0  0  0  0  0  0  0  0  1  0  0  0  0  0  0  0  0
%% 0  1  0  1  0  1  2  1  2  0  0  1  0  0  0  0  0  0  0  1
%% 0  0  0  0  2  1  2  0  2  0  1  0  0  0  0  2  0  0  2  2
%% 0  0  0  0  0  0  0  0  0  0  0  0  2  0  0  0  2  1  0  0
%% 0  1  0  0  0  0  1  0  1  0  2  0  0  0  0  0  0  0  0  0
%% 0  0  0  0  0  0  0  0  0  0  0  0  0  0  0  0  0  0  0  0
%% 2  2  1  0  0  2  0  0  0  2  1  0  0  2  0  1  0  0  0  0
%% 1  0  1  1  0  0  1  0  1  0  0  0  0  0  0  0  2  0  0  0
%Played Games - Tie Results:
%% 0  2  0  2  1  2  1  0  1  0  1  2  0  1  1  2  2  1  0  0
%% 2  0  2  1  0  1  2  2  2  2  2  2  0  0  2  2  0  1  0  1
%% 0  2  0  1  1  0  2  2  0  0  1  2  2  2  2  0  2  2  1  0
%% 2  1  1  0  1  2  2  1  1  0  2  1  2  1  1  2  1  2  2  0
%% 1  0  1  1  0  1  1  0  2  0  1  0  1  2  0  1  0  0  2  2
%% 2  1  0  2  1  0  1  0  0  2  2  2  2  0  0  2  2  1  0  2
%% 1  2  2  2  1  1  0  0  0  2  0  1  1  0  0  1  1  0  1  0
%% 0  2  2  1  0  0  0  0  2  1  0  1  1  0  0  0  2  0  0  2
%% 1  2  0  1  2  0  0  2  0  1  2  0  0  0  0  1  1  2  1  0
%% 0  2  0  0  0  2  2  1  1  0  1  1  1  0  1  1  0  0  0  0
%% 1  2  1  2  1  2  0  0  2  1  0  1  1  2  0  2  0  2  0  2
%% 2  2  2  1  0  2  1  1  0  1  1  0  1  1  1  1  1  1  1  1
%% 0  0  2  2  1  2  1  1  0  1  1  1  0  2  2  0  1  2  1  2
%% 1  0  2  1  2  0  0  0  0  0  2  1  2  0  1  2  1  1  0  0
%% 1  2  2  1  0  0  0  0  0  1  0  1  2  1  0  0  1  2  0  0
%% 2  2  0  2  1  2  1  0  1  1  2  1  0  2  0  0  0  0  0  2
%% 2  0  2  1  0  2  1  2  1  0  0  1  1  1  1  0  0  1  1  0
%% 1  1  2  2  0  1  0  0  2  0  2  1  2  1  2  0  1  0  1  2
%% 0  0  1  2  2  0  1  0  1  0  0  1  1  0  0  0  1  1  0  2
%% 0  1  0  0  2  2  0  2  0  0  2  1  2  0  0  2  0  2  2  0
%Played Games - Lose Results:
%% 0  0  0  0  0  0  0  1  0  2  0  0  0  0  0  0  0  0  2  1
%% 0  0  0  0  1  0  0  0  0  0  0  0  1  1  0  0  1  0  2  0
%% 1  0  0  0  0  0  0  0  1  1  0  0  0  0  0  0  0  0  1  1
%% 0  0  0  0  1  0  0  0  0  2  0  0  0  1  0  0  0  0  0  1
%% 0  0  0  0  0  0  0  1  0  2  0  0  0  0  2  0  0  0  0  0
%% 0  0  1  0  1  0  0  1  1  0  0  0  0  1  1  0  0  0  2  0
%% 0  0  0  0  0  0  0  2  2  0  0  0  0  2  2  0  1  0  0  1
%% 0  0  0  0  0  0  0  0  0  0  0  0  0  1  0  0  0  0  0  0
%% 0  0  0  0  0  0  0  0  0  0  0  0  0  2  2  0  1  0  0  1
%% 0  0  0  0  0  0  0  0  0  0  0  0  0  0  0  0  0  0  2  0
%% 1  0  1  0  0  0  1  1  0  0  0  0  0  0  1  0  2  0  1  0
%% 0  0  0  0  2  0  1  1  2  1  0  0  1  1  0  0  0  0  0  0
%% 2  0  0  0  0  0  0  0  2  0  0  0  0  0  0  2  0  0  0  0
%% 0  0  0  0  0  0  0  0  0  2  0  0  0  0  0  0  0  0  2  0
%% 0  0  0  0  0  0  0  2  0  0  0  0  0  0  0  0  0  0  0  0
%% 0  0  1  0  0  0  0  2  0  0  0  0  0  0  2  0  0  0  1  0
%% 0  0  0  0  2  0  0  0  0  2  0  0  0  0  0  2  0  0  0  2
%% 1  0  0  0  2  0  2  2  0  1  0  0  0  0  0  1  0  0  0  0
%% 0  0  0  0  0  0  0  2  0  0  0  0  0  0  2  0  0  0  0  0
%% 0  0  0  0  0  0  0  0  0  2  0  0  0  1  2  0  0  0  0  0

%%Initial points:
iPoints=[34, 24, 31, 25, 43, 22, 28, 59, 40, 58, 22, 21, 28, 46, 56, 34, 32, 21, 52, 39];

%%Initial positions:
%iPositions=[10, 16, 12, 15, 6, 18, 14, 1, 7, 2, 17, 20, 13, 5, 3, 9, 11, 19, 4, 8];

%%Position Constraints:
%numberPositionConstraints=1;

%%Total Fixtures:
%totalFixtures=38;

%%Fixtures to Play:
%fixturesToPlay=8;

%%Position Constraints Built With
%wantedPoints=[0, 1, 1, 0, 3, 3, 0, 3, 0, 0, 0, 1, 1, 3, 3, 1, 3, 3, 1, 1, 3, 1, 0, 0, 1, 1, 3, 0, 1, 3, 3, 1, 1, 3, 1, 1, 0, 3, 3, 1, 0, 0, 3, 0, 0, 3, 0, 1, 3, 1, 1, 0, 0, 3, 1, 3, 0, 1, 1, 0, 1, 1, 3, 0, 1, 1, 3, 1, 1, 0, 0, 0, 3, 3, 0, 1, 3, 3, 0, 0];

%POSITION CONSTRAINTS
%%[|teamID, operator, position|...]
%%operators index:
%%%1 for =  operator
%%%2 for >  operator
%%%3 for >= operator
%%%4 for <  operator
%%%5 for <= operator

positionConstraints=[|19,1,4|];

%SCORE VECTOR CONSTRAINTS
%%[|teamID, operator, wantedPoints|...]
%%operators index:
%%%1 for =  operator
%%%2 for >  operator
%%%3 for >= operator
%%%4 for <  operator
%%%5 for <= operator

%scoreVectorConstraints=[|19,1,59|];

%Instance Features:
%features=T,FP,TF,C,C/T,C/TF,FP/TF,FP/T,FP*C/T,FP*T/C,(C/T)*(FP/TF),Distance,Distance/C,Distance/T,Distance/(C*T)
%values=20,8,38,1,0.05,0.02631578947368421,0.2105263157894737,0.4,0.4,160.0,0.01052631578947368,0,0.0,0.0,0.0



gamesOfEveryTeam=[8,8,8,8,8,8,8,8,8,8,8,8,8,8,8,8,8,8,8,8];
weights=[|88,11,0,1|31,27,0,42|22,41,0,37|30,7,0,63|0,64,0,36|59,15,0,26|13,77,0,10|87,9,0,4|67,32,0,1|11,69,0,20|16,29,0,55|15,40,0,45|23,4,0,73|82,9,0,9|68,30,0,2|86,11,0,3|100,0,0,0|27,46,0,27|100,0,0,0|97,3,0,0|50,49,0,1|81,4,0,15|17,10,0,73|7,3,0,90|100,0,0,0|96,1,0,3|39,44,0,17|84,15,0,1|87,8,0,5|56,32,0,12|91,8,0,1|17,70,0,13|99,1,0,0|58,36,0,6|27,47,0,26|19,7,0,74|49,49,0,2|80,15,0,5|2,0,0,98|43,41,0,16|12,40,0,48|40,24,0,36|0,63,0,37|45,12,0,43|93,2,0,5|79,13,0,8|54,28,0,18|61,14,0,25|20,6,0,74|30,46,0,24|83,14,0,3|33,2,0,65|31,39,0,30|45,11,0,44|52,35,0,13|64,21,0,15|41,45,0,14|42,45,0,13|7,85,0,8|89,4,0,7|83,8,0,9|15,52,0,33|26,30,0,44|69,10,0,21|7,85,0,8|18,22,0,60|52,20,0,28|2,52,0,46|16,10,0,74|28,66,0,6|35,3,0,62|76,8,0,16|61,8,0,31|8,46,0,46|38,55,0,7|5,74,0,21|1,69,0,30|10,31,0,59|71,0,0,29|67,7,0,26|];